NAME : 10_3_3_2_(03).dat
COMMENT : Henke, Speranza, Wäscher, 2015
TYPE : MCVRP
DIMENSION : 11
EDGE_WEIGHT_TYPE : DISTANCE_MATRIX
CAPACITY : 1000
VEHICLES : 2
PRODUCT TYPES : 3
COMPARTMENTS : 3
NODE_COORD_SECTION
1 50 50
2 32.35 74.01
3 28.91 43.12
4 10.31 35.56
5 51.04 92.24
6 30.34 63.73
7 75.17 79.77
8 53.41 21.5
9 76.91 4.63
10 84.55 67.58
11 99.45 64.49
DEMAND_SECTION
1 0 0 0
2 99 11 0
3 124 0 46
4 0 47 36
5 145 69 0
6 0 85 71
7 78 25 0
8 0 91 70
9 138 74 0
10 0 4 9
11 92 0 38
DEPOT_SECTION
1
EOF